0001 0 1 2
0002 0 1 25 80 65 120 17 150 180 210 300 500 700 8000
0003 0 1 46
0004 0 3 89 45 100 130
0005 0 3 200
0006 0 3 1186 1200
0007 0 3 133
0001 1 1 2
0002 1 1 25 80 65 120 17 150 180 210 300 500 7 400 334 600 800 333
0003 1 1 465
0004 1 3 89
0005 1 3 69
0006 1 3 800
0007 1 3 82